NAME : amz0806.68940_67440.tour
COMMENT : Cost = 68940_67440
COMMENT : Found by LKH-AMZ [Keld Helsgaun] Sun May 11 12:45:44 2025
COMMENT : TW viol.: 0 #: 0
TYPE : TOUR
DIMENSION : 118
TOUR_SECTION
69
23
5
93
110
42
26
113
59
41
56
65
84
88
82
53
44
46
104
99
19
85
94
89
25
13
106
27
37
58
50
61
116
103
71
38
45
8
28
14
72
115
109
34
118
64
101
32
7
52
36
112
15
57
60
35
1
4
54
43
95
98
33
80
96
39
51
68
22
49
86
111
63
9
48
77
10
21
81
92
67
66
114
40
18
70
24
29
55
79
78
3
11
117
107
105
6
100
87
16
97
30
47
31
102
90
20
62
12
83
74
108
75
73
2
17
76
91
-1
EOF
